SCIP Status        : solving was interrupted [time limit reached]
Total Time         :    3600.01
  solving          :    3600.00
  presolving       :       0.38 (included in solving)
  reading          :       0.01
  copying          :       2.68 (46 #copies) (minimal 0.00, maximal 0.21, average 0.06)
Original Problem   :
  Problem name     : bbbenchmark/g05_100.4.cut
  Variables        : 101 (100 binary, 0 integer, 0 implicit integer, 1 continuous)
  Constraints      : 1 initial, 1 maximal
  Objective        : minimize, 1 non-zeros (abs.min = 1, abs.max = 1)
Presolved Problem  :
  Problem name     : t_bbbenchmark/g05_100.4.cut
  Variables        : 1765 (100 binary, 0 integer, 1648 implicit integer, 17 continuous)
  Constraints      : 1697 initial, 11698 maximal
  Objective        : minimize, 1 non-zeros (abs.min = 1, abs.max = 1)
  Nonzeros         : 8443 constraint, 202 clique table
Presolvers         :   ExecTime  SetupTime  Calls  FixedVars   AggrVars   ChgTypes  ChgBounds   AddHoles    DelCons    AddCons   ChgSides   ChgCoefs
  boundshift       :       0.00       0.00      0          0          0          0          0          0          0          0          0          0
  convertinttobin  :       0.00       0.00      0          0          0          0          0          0          0          0          0          0
  domcol           :       0.00       0.00      1          0          0          0          0          0          0          0          0          0
  dualagg          :       0.00       0.00      0          0          0          0          0          0          0          0          0          0
  dualcomp         :       0.00       0.00      1          0          0          0          0          0          0          0          0          0
  dualinfer        :       0.00       0.00      0          0          0          0          0          0          0          0          0          0
  dualsparsify     :       0.00       0.00      1          0          0          0          0          0          0          0          0          0
  gateextraction   :       0.00       0.00      0          0          0          0          0          0          0          0          0          0
  implics          :       0.00       0.00      2          0          0          0          0          0          0          0          0          0
  inttobinary      :       0.00       0.00      0          0          0          0          0          0          0          0          0          0
  qpkktref         :       0.00       0.00      0          0          0          0          0          0          0          0          0          0
  redvub           :       0.00       0.00      0          0          0          0          0          0          0          0          0          0
  sparsify         :       0.00       0.00      1          0          0          0          0          0          0          0          0          0
  stuffing         :       0.00       0.00      0          0          0          0          0          0          0          0          0          0
  trivial          :       0.00       0.00      4          0          0          0          0          0          0          0          0          0
  tworowbnd        :       0.00       0.00      0          0          0          0          0          0          0          0          0          0
  dualfix          :       0.00       0.00      4          0          0          0          0          0          0          0          0          0
  genvbounds       :       0.00       0.00      0          0          0          0          0          0          0          0          0          0
  probing          :       0.31       0.00      1          0          0          0          0          0          0          0          0          0
  pseudoobj        :       0.00       0.00      1          0          0          0          1          0          0          0          0          0
  symmetry         :       0.00       0.00      0          0          0          0          0          0          0          0          0          0
  vbounds          :       0.00       0.00      1          0          0          0          0          0          0          0          0          0
  varbound         :       0.00       0.00      2          0          0          0          0          0          0          0          0          0
  and              :       0.00       0.00      2          0          0          0          0          0          0          0          0          0
  linear           :       0.00       0.00      2          0          0          0          0          0          0          0          0          0
  logicor          :       0.00       0.00      0          0          0          0          0          0          0          0          0          0
  bounddisjunction :       0.00       0.00      0          0          0          0          0          0          0          0          0          0
  nonlinear        :       0.07       0.01      5          0          0          0          1          0          0       1696          0          0
  benders          :       0.00       0.00      0          0          0          0          0          0          0          0          0          0
  components       :       0.00       0.00      1          0          0          0          0          0          0          0          0          0
  root node        :          -          -      -          0          -          -         12          -          -          -          -          -
Constraints        :     Number  MaxNumber  #Separate #Propagate    #EnfoLP    #EnfoRelax  #EnfoPS    #Check   #ResProp    Cutoffs    DomReds       Cuts    Applied      Conss   Children
  benderslp        :          0          0          0          0      86896          0          0      11705          0          0          0          0          0          0          0
  integral         :          0          0          0          0      86896          0          0      11705          0          0        207          0          0        186     173462
  varbound         :         16         16         93     630239          0          0          0         36          0          0      55914          0          0          0          0
  and              :       1648       1648     103067     693032          1          0          0         36     604660          0     749259       3423       3350          0          0
  linear           :         33+        42         93     693080          1          0          0         34       1312          7     176669          0          0          0          0
  logicor          :          0+      9511          0     110947          0          0          0          0         27        350         38          0          0          0          0
  bounddisjunction :          0+       664          0      48932          0          0          0          0          5         27          9          0          0          0          0
  benders          :          0          0          0          0          1          0          0         34          0          0          0          0          0          0          0
  countsols        :          0          0          0          0          1          0          0         34          0          0          0          0          0          0          0
  components       :          0          0          0          0          0          0          0          0          0          0          0          0          0          0          0
Constraint Timings :  TotalTime  SetupTime   Separate  Propagate     EnfoLP     EnfoPS     EnfoRelax   Check    ResProp    SB-Prop
  benderslp        :       0.06       0.00       0.00       0.00       0.06       0.00       0.00       0.00       0.00       0.00
  integral         :      58.74       0.00       0.00       0.00      58.72       0.00       0.00       0.02       0.00       0.00
  varbound         :       0.80       0.00       0.00       0.78       0.00       0.00       0.00       0.00       0.00       0.02
  and              :     116.61       0.00      81.34      34.06       0.00       0.00       0.00       0.02       0.49       0.70
  linear           :       3.52       0.00       0.06       3.39       0.00       0.00       0.00       0.01       0.00       0.06
  logicor          :      13.90       0.00       0.00      13.88       0.00       0.00       0.00       0.00       0.00       0.02
  bounddisjunction :       2.01       0.00       0.00       2.01       0.00       0.00       0.00       0.00       0.00       0.00
  benders          :       0.00       0.00       0.00       0.00       0.00       0.00       0.00       0.00       0.00       0.00
  countsols        :       0.00       0.00       0.00       0.00       0.00       0.00       0.00       0.00       0.00       0.00
  components       :       0.15       0.00       0.00       0.15       0.00       0.00       0.00       0.00       0.00       0.00
Propagators        : #Propagate   #ResProp    Cutoffs    DomReds
  dualfix          :          4          0          0          0
  genvbounds       :          0          0          0          0
  nlobbt           :          0          0          0          0
  obbt             :          0          0          0          0
  probing          :          0          0          0          0
  pseudoobj        :     336273          0          0        133
  redcost          :     197688          0          0      46976
  rootredcost      :         14          0          0          0
  symmetry         :          0          0          0          0
  vbounds          :     103440          0          0          0
Propagator Timings :  TotalTime  SetupTime   Presolve  Propagate    ResProp    SB-Prop
  dualfix          :       0.00       0.00       0.00       0.00       0.00       0.00
  genvbounds       :       0.58       0.00       0.00       0.58       0.00       0.00
  nlobbt           :       0.00       0.00       0.00       0.00       0.00       0.00
  obbt             :       0.00       0.00       0.00       0.00       0.00       0.00
  probing          :       0.31       0.00       0.31       0.00       0.00       0.00
  pseudoobj        :       0.77       0.00       0.00       0.77       0.00       0.00
  redcost          :      13.29       0.00       0.00      13.29       0.00       0.00
  rootredcost      :       0.58       0.00       0.00       0.58       0.00       0.00
  symmetry         :       0.28       0.00       0.00       0.28       0.00       0.00
  vbounds          :       0.59       0.00       0.00       0.59       0.00       0.00
Conflict Analysis  :       Time      Calls    Success    DomReds  Conflicts   Literals    Reconvs ReconvLits   Dualrays   Nonzeros   LP Iters   (pool size: [10000,10000])
  propagation      :       0.02        377        287          -        329       62.6          0        0.0          -          -          -
  infeasible LP    :       0.07         46         46          -       2197      158.4          0        0.0         61      195.8          0
  bound exceed. LP :      24.85       6656       6410          -     171949      109.8          0        0.0          0        0.0      57004
  strong branching :       0.00          0          0          -          0        0.0          0        0.0          -          -          0
  pseudo solution  :       0.00          0          0          -          0        0.0          0        0.0          -          -          -
  applied globally :       0.77          -          -          0      38019      120.4          -          -         61          -          -
  applied locally  :          -          -          -          0          0        0.0          -          -          0          -          -
Separators         :   ExecTime  SetupTime      Calls  RootCalls    Cutoffs    DomReds  FoundCuts ViaPoolAdd  DirectAdd    Applied ViaPoolApp  DirectApp      Conss
  cut pool         :       7.02          -      24104        118          -          -      37599    1918181          -          -          -          -          -    (maximal pool size:       4047)
  aggregation      :      14.01       0.00       5554         93          0          0        190        555          0        278        278          0          0
  > cmir           :          -          -          -          -          -          -          -        555          0        278        278          0          -
  > flowcover      :          -          -          -          -          -          -          -          0          0          0          0          0          -
  > knapsackcover  :          -          -          -          -          -          -          -          0          0          0          0          0          -
  cgmip            :       0.00       0.00          0          0          0          0          0          0          0          0          0          0          0
  clique           :       0.01       0.00         93         93          0          0          0          0          0          0          0          0          0
  closecuts        :       0.00       0.00          0          0          0          0          0          0          0          0          0          0          0
  convexproj       :       0.00       0.00          0          0          0          0          0          0          0          0          0          0          0
  disjunctive      :       0.00       0.00          0          0          0          0          0          0          0          0          0          0          0
  eccuts           :       0.00       0.00          0          0          0          0          0          0          0          0          0          0          0
  gauge            :       0.00       0.00          0          0          0          0          0          0          0          0          0          0          0
  gomory           :       0.00       0.00          0          0          0          0          0          0          0          0          0          0          0
  > gomorymi       :          -          -          -          -          -          -          -          0          0          0          0          0          -
  > strongcg       :          -          -          -          -          -          -          -          0          0          0          0          0          -
  impliedbounds    :       0.43       0.00       5554         93          0          0          5          0          0          0          0          0          0
  interlattice     :       0.44       0.00         60         60          0          0         60          0         60         60          0         60          0
  interminor       :       0.00       0.00          0          0          0          0          0          0          0          0          0          0          0
  intersub         :       0.00       0.00          0          0          0          0          0          0          0          0          0          0          0
  intobj           :       0.00       0.00          0          0          0          0          0          0          0          0          0          0          0
  mcf              :       0.00       0.00          1          1          0          0          0          0          0          0          0          0          0
  minor            :       0.05       0.00          0          0          0          0          0          0          0          0          0          0          0
  mixing           :       0.05       0.00       5554         93          0          0          0          0          0          0          0          0          0
  oddcycle         :       0.00       0.00          0          0          0          0          0          0          0          0          0          0          0
  rapidlearning    :       0.02       0.00          0          0          0          0          0          0          0          0          0          0          0
  rlt              :       0.00       0.00         10         10          0          0          0          0          0          0          0          0          0
  zerohalf         :      43.88       0.00       4770         20          0          0      37404    1917626          0     219515     219515          0          0
Cutselectors       :   ExecTime  SetupTime      Calls  RootCalls   Selected     Forced   Filtered  RootSelec   RootForc   RootFilt 
  hybrid           :       2.22       0.00      17289         91     223203          0    1698461        259          0          4
Pricers            :   ExecTime  SetupTime      Calls       Vars
  problem variables:       0.00          -          0          0
Branching Rules    :   ExecTime  SetupTime   BranchLP  BranchExt   BranchPS    Cutoffs    DomReds       Cuts      Conss   Children
  allfullstrong    :       0.00       0.00          0          0          0          0          0          0          0          0
  cloud            :       0.00       0.00          0          0          0          0          0          0          0          0
  distribution     :       0.00       0.00          0          0          0          0          0          0          0          0
  fullstrong       :       0.00       0.00          0          0          0          0          0          0          0          0
  inference        :       0.00       0.00          0          0          0          0          0          0          0          0
  leastinf         :       0.00       0.00          0          0          0          0          0          0          0          0
  lookahead        :       0.00       0.00          0          0          0          0          0          0          0          0
  mostinf          :       0.00       0.00          0          0          0          0          0          0          0          0
  multaggr         :       0.00       0.00          0          0          0          0          0          0          0          0
  nodereopt        :       0.00       0.00          0          0          0          0          0          0          0          0
  pscost           :       0.00       0.00          0          0          0          0          0          0          0          0
  random           :       0.00       0.00          0          0          0          0          0          0          0          0
  relpscost        :      58.46       0.00      86895          0          0          0        207          0        186     173462
  vanillafullstrong:       0.00       0.00          0          0          0          0          0          0          0          0
Primal Heuristics  :   ExecTime  SetupTime      Calls      Found       Best
  LP solutions     :       0.00          -          -          1          1
  relax solutions  :       0.00          -          -          0          0
  pseudo solutions :       0.00          -          -          0          0
  strong branching :       0.10          -          -          0          0
  actconsdiving    :       0.00       0.00          0          0          0
  adaptivediving   :       4.24       0.00         32          0          0
  alns             :       6.10       0.00         24         12         12
  bound            :       0.00       0.00          0          0          0
  clique           :       0.01       0.00          1          0          0
  coefdiving       :       0.00       0.00          0          0          0
  completesol      :       0.00       0.00          0          0          0
  conflictdiving   :     162.30       0.00       1251          1          1
  crossover        :       0.79       0.00          4          0          0
  dins             :       0.00       0.00          0          0          0
  distributiondivin:      83.95       0.00        388          0          0
  dps              :       0.00       0.00          0          0          0
  dualval          :       0.00       0.00          0          0          0
  farkasdiving     :       0.01       0.00          0          0          0
  feaspump         :       0.20       0.00          1          1          1
  fixandinfer      :       0.00       0.00          0          0          0
  fracdiving       :      66.43       0.00        552          0          0
  gins             :       0.13       0.00          0          0          0
  guideddiving     :      68.96       0.00        599          4          4
  indicator        :       0.17       0.00          0          0          0
  indicatordiving  :       0.00       0.00          0          0          0
  intdiving        :       0.00       0.00          0          0          0
  intshifting      :       0.64       0.00         91          0          0
  linesearchdiving :      62.95       0.00        500          0          0
  localbranching   :       0.00       0.00          0          0          0
  locks            :       0.00       0.00          1          0          0
  lpface           :       0.11       0.00          0          0          0
  mpec             :     461.25       0.00         11          1          1
  multistart       :       0.00       0.00          0          0          0
  mutation         :       0.00       0.00          0          0          0
  nlpdiving        :      28.94       0.00          3          0          0
  objpscostdiving  :      60.10       0.00         80          5          1
  octane           :       0.00       0.00          0          0          0
  ofins            :       0.10       0.00          0          0          0
  oneopt           :       0.11       0.00         17          0          0
  padm             :       0.00       0.00          0          0          0
  proximity        :       0.00       0.00          0          0          0
  pscostdiving     :      64.31       0.00        427          1          1
  randrounding     :       1.11       0.00      11668          0          0
  rens             :       0.00       0.00          0          0          0
  reoptsols        :       0.00       0.00          0          0          0
  repair           :       0.00       0.00          0          0          0
  rins             :       3.17       0.00         17          0          0
  rootsoldiving    :      43.63       0.00         53          2          0
  rounding         :       1.41       0.00       4438          0          0
  shiftandpropagate:       0.00       0.00          0          0          0
  shifting         :      30.05       0.00       6341          1          1
  simplerounding   :       0.11       0.00          0          0          0
  subnlp           :     145.04       0.00          0          0          0
  trivial          :       0.00       0.00          2          2          2
  trivialnegation  :       0.00       0.00          0          0          0
  trustregion      :       0.00       0.00          0          0          0
  trysol           :       0.27       0.00          0          0          0
  twoopt           :       0.00       0.00          0          0          0
  undercover       :       1.80       0.00          1          1          1
  vbounds          :       0.00       0.00          0          0          0
  veclendiving     :      62.86       0.00        504          0          0
  zeroobj          :       0.00       0.00          0          0          0
  zirounding       :       0.40       0.00       1000          0          0
  other solutions  :          -          -          -          0          -
Diving (single)    :      Calls      Nodes   LP Iters Backtracks  Conflicts   MinDepth   MaxDepth   AvgDepth  RoundSols  NLeafSols  MinSolDpt  MaxSolDpt  AvgSolDpt
  actconsdiving    :          0          -          -          -          -          -          -          -          -          -          -          -          -
  coefdiving       :          0          -          -          -          -          -          -          -          -          -          -          -          -
  conflictdiving   :       1251      52787    1537238       1329      79291         56         80       64.3          0          1         62         62       62.0
  distributiondivin:        388      14582     620957        443       7661         51         72       58.2          0          -          -          -          -
  farkasdiving     :          0          -          -          -          -          -          -          -          -          -          -          -          -
  fracdiving       :        552      57271     613244        117       1563         57        335      125.9          0          -          -          -          -
  guideddiving     :        599      56652     649619        126       4375         57        272      117.4          0          4        108        141      122.2
  indicatordiving  :          0          -          -          -          -          -          -          -          -          -          -          -          -
  linesearchdiving :        500      20580     617350        438      29205         46         84       62.0          0          -          -          -          -
  pscostdiving     :        427      18134     634431        441      14691         55         77       63.5          0          1         77         77       77.0
  veclendiving     :        504      21939     617150        478      34992         55         92       64.6          0          -          -          -          -
Diving (adaptive)  :      Calls      Nodes   LP Iters Backtracks  Conflicts   MinDepth   MaxDepth   AvgDepth  RoundSols  NLeafSols  MinSolDpt  MaxSolDpt  AvgSolDpt
  actconsdiving    :          2         37       1175          2         25         56         58       57.0          0          -          -          -          -
  coefdiving       :         14        663      18560          9        902         54         79       64.9          0          -          -          -          -
  conflictdiving   :          0          -          -          -          -          -          -          -          -          -          -          -          -
  distributiondivin:          0          -          -          -          -          -          -          -          -          -          -          -          -
  farkasdiving     :          0          -          -          -          -          -          -          -          -          -          -          -          -
  fracdiving       :          0          -          -          -          -          -          -          -          -          -          -          -          -
  guideddiving     :          4        381       5043          1         70        102        119      112.0          0          -          -          -          -
  indicatordiving  :          0          -          -          -          -          -          -          -          -          -          -          -          -
  linesearchdiving :          6        249       6805          6        410         54         83       63.2          0          -          -          -          -
  pscostdiving     :          3        128       4742          4         99         62         65       63.7          0          -          -          -          -
  veclendiving     :          3        135       3919          4        233         59         70       65.0          0          -          -          -          -
Neighborhoods      :      Calls  SetupTime  SolveTime SolveNodes       Sols       Best       Exp3  EpsGreedy        UCB TgtFixRate  Opt  Inf Node Stal  Sol  Usr Othr Actv
  rens             :          6       0.71       0.88        197          3          3    0.00000   -1.00000    0.47883      0.506    0    3    0    2    1    0    0    1
  rins             :          2       0.05       1.11       2239          3          3    0.00000   -1.00000    0.49515      0.550    0    1    0    0    1    0    0    1
  mutation         :          2       0.19       0.09         71          0          0    0.00000   -1.00000    0.47340      0.850    0    1    0    1    0    0    0    1
  localbranching   :          2       0.09       0.58       1208          1          1    0.00000   -1.00000    0.47316      0.850    1    0    0    1    0    0    0    1
  crossover        :          1       0.04       0.03         79          0          0    0.00000   -1.00000    0.49276      0.700    0    1    0    0    0    0    0    1
  proximity        :          2       0.25       0.19        119          0          0    0.00000   -1.00000    0.45525      0.850    0    1    0    1    0    0    0    1
  zeroobjective    :          1       0.04       0.03         67          0          0    0.00000   -1.00000    0.50476      0.700    0    1    0    0    0    0    0    1
  dins             :          8       1.03       0.56        631          5          5    0.00000   -1.00000    0.51006      0.867    1    1    0    5    1    0    0    1
  trustregion      :          0       0.00       0.00          0          0          0    0.00000   -1.00000    1.00000      0.900    0    0    0    0    0    0    0    0
Expressions        :   #IntEval  IntEvalTi   #RevProp  RevPropTi    DomReds    Cutoffs  #Estimate  EstimTime  Branching  #Simplify SimplifyTi Simplified
  pow              :          0       0.00          0       0.00          0          0          0       0.00          0          0       0.00          0
  prod             :       9900       0.00          0       0.00          0          0          0       0.00          0       6598       0.01          0
  sum              :          8       0.02          2       0.00          0          0          0       0.00          0          3       0.01          2
  var              :       6104       0.01          0       0.00          0          0          0       0.00          0      15163       0.00          0
  varidx           :          0       0.00          0       0.00          0          0          0       0.00          0          0       0.00          0
LP                 :       Time      Calls Iterations  Iter/call   Iter/sec  Time-0-It Calls-0-It    ItLimit
  primal LP        :      92.52      12402          0       0.00       0.00      92.47      12402
  dual LP          :    1716.41     144502   12072775      87.56    7033.74       2.93       6615
  lex dual LP      :       0.00          0          0       0.00          -
  barrier LP       :       0.00          0          0       0.00          -       0.00          0
  resolve instable :       0.00          0          0       0.00          -
  diving/probing LP:     572.24      20882    5917028     283.36   10340.12
  strong branching :      25.74       1913     243281     127.17    9451.48          -          -        169
    (at root node) :          -         21       4886     232.67          -
  conflict analysis:       9.34       5831      57004       9.78    6103.21
NLP relaxation     :
  solve time       :      28.47 (8 calls)
  convexity        :  nonconvex (49 linear rows, 0 convex ineq., 0 nonconvex ineq., 1648 nonlinear eq. or two-sided ineq.)
NLP Solvers        :  #Problems  ProblemTi    #Solves  SolveTime      #Iter  Time/Iter      #Okay #TimeLimit #IterLimit #LObjLimit #Interrupt  #NumError #EvalError  #OutOfMem #LicenseEr #OtherTerm   #GlobOpt    #LocOpt  #Feasible #LocInfeas #GlobInfea #Unbounded   #Unknown
  ipopt            :         12       6.77         41     495.40       2011       0.25         40          0          1          0          0          0          0          0          0          0          0         23          0         15          0          0          3
B&B Tree           :
  number of runs   :          1
  nodes            :     120437 (86731 internal, 33706 leaves)
  feasible leaves  :          1
  infeas. leaves   :          5
  objective leaves :      33699
  nodes (total)    :     120437 (86731 internal, 33706 leaves)
  nodes left       :      52736
  max depth        :         66
  max depth (total):         66
  backtracks       :      25566 (21.2%)
  early backtracks :          0 (0.0%)
  nodes exc. ref.  :          0 (0.0%)
  delayed cutoffs  :          6
  repropagations   :        112 (92 domain reductions, 0 cutoffs)
  avg switch length:       6.74
  switching time   :     129.36
Estim. Tree Size   :     241454
Estimation Tree    : 173463 nodes (120727 visited, 86731 internal, 33996 leaves, 52736 open), weight: 0.0000 completed 0.0976
Estimations        :      estim      value      trend resolution     smooth
  wbe              : 344201805717062          -          -          -          -
  tree-profile     :         -1          -          -          -          -
  gap              :    5768058    0.67365    0.00001         64    5661982
  tree-weight      :     241454    0.00000    0.00000         64     241299
  leaf-frequency   :     557149    0.28159    0.00006         64     553462
  ssg              :   15056860    0.84587   -0.00001         64   15132068
  open-nodes       :     241454 52736.00000    9.15881         64     241299
Root Node          :
  First LP value   : -1.00000000000000e+00
  First LP Iters   :       1623 (12484.62 Iter/sec)
  First LP Time    :       0.13
  Final Dual Bound : -9.51742424242424e-01
  Final Root Iters :       3204
  Root LP Estimate : -3.32762742089428e-01
Solution           :
  Solutions found  :         32 (26 improvements)
  First Solution   : +1.00000000000000e+05   (in run 1, after 0 nodes, 0.00 seconds, depth 0, found by <trivial>)
  Gap First Sol.   :   infinite
  Gap Last Sol.    :      52.55 %
  Primal Bound     : -5.65656565656563e-01   (in run 1, after 39607 nodes, 1025.63 seconds, depth 20, found by <alns>)
  Dual Bound       : -8.39686206704349e-01
  Gap              :      48.44 %
Integrals          :      Total       Avg%
  primal-dual      :  127254.73      35.35
  primal-ref       :          -          - (not evaluated)
  dual-ref         :          -          - (not evaluated)
